Route #1: 98 91 89 104 63 103 21 1 18 55 46 43 77 106 82 105 111 76 56
Route #2: 16 32 118 85 24 114 137 9 26 23 4 62 70 88 124
Route #3: 54 79 121 20 73 120 75 133 64 127 130 93 132 107 92 78 41 80 31 97 13 58 35 110 45 109
Route #4: 29 57 44 72 117 90 113 6 5 96 53 129 36 125 25 112 22 108 94 69 38 131 34 115 27 123 50 74 10
Route #5: 3 7 30 84 51 39 8 15 65 48 60 42 67 100 102 14 135 33 86 81 71
Route #6: 95 126 52 87 99 2 49 12 66 19 61 59 134 40 37 17 11 47 119 128 101 116 68 83 136 28 138 122
Cost 11261.000000